p cnf 4202 947
-3827 4007 0
-4007 3827 0
-4009 -4010 0
-3829 4009 0
-3830 4010 0
-4009 3829 0
-4010 3830 0
-4012 -4013 0
-3832 4012 0
-3833 4013 0
-4012 3832 0
-4013 3833 0
-4015 -4016 0
-4015 -4017 0
-4016 -4017 0
-3835 4015 0
-3836 4016 0
-3837 4017 0
-4015 3835 0
-4016 3836 0
-4017 3837 0
-4019 -4020 0
-3839 4019 0
-3840 4020 0
-4019 3839 0
-4020 3840 0
-4022 -4023 0
-4022 -4024 0
-4023 -4024 0
-3842 4022 0
-3843 4023 0
-3844 4024 0
-4022 3842 0
-4023 3843 0
-4024 3844 0
-4026 -4027 0
-3846 4026 0
-3847 4027 0
-4026 3846 0
-4027 3847 0
-4029 -4030 0
-4029 -4031 0
-4030 -4031 0
-3849 4029 0
-3850 4030 0
-3851 4031 0
-4029 3849 0
-4030 3850 0
-4031 3851 0
-4033 -4034 0
-3853 4033 0
-3854 4034 0
-4033 3853 0
-4034 3854 0
-4036 -4037 0
-4036 -4038 0
-4037 -4038 0
-3856 4036 0
-3857 4037 0
-3858 4038 0
-4036 3856 0
-4037 3857 0
-4038 3858 0
-4040 -4041 0
-3860 4040 0
-3861 4041 0
-4040 3860 0
-4041 3861 0
-4043 -4044 0
-4043 -4045 0
-4044 -4045 0
-3863 4043 0
-3864 4044 0
-3865 4045 0
-4043 3863 0
-4044 3864 0
-4045 3865 0
-4047 -4048 0
-3867 4047 0
-3868 4048 0
-4047 3867 0
-4048 3868 0
-4050 -4051 0
-4050 -4052 0
-4051 -4052 0
-3870 4050 0
-3871 4051 0
-3872 4052 0
-4050 3870 0
-4051 3871 0
-4052 3872 0
-4054 -4055 0
-3874 4054 0
-3875 4055 0
-4054 3874 0
-4055 3875 0
-4057 -4058 0
-4057 -4059 0
-4058 -4059 0
-3877 4057 0
-3878 4058 0
-3879 4059 0
-4057 3877 0
-4058 3878 0
-4059 3879 0
-4061 -4062 0
-3881 4061 0
-3882 4062 0
-4061 3881 0
-4062 3882 0
-4064 -4065 0
-4064 -4066 0
-4065 -4066 0
-3884 4064 0
-3885 4065 0
-3886 4066 0
-4064 3884 0
-4065 3885 0
-4066 3886 0
-4068 -4069 0
-3888 4068 0
-3889 4069 0
-4068 3888 0
-4069 3889 0
-4071 -4072 0
-4071 -4073 0
-4072 -4073 0
-3891 4071 0
-3892 4072 0
-3893 4073 0
-4071 3891 0
-4072 3892 0
-4073 3893 0
-4075 -4076 0
-3895 4075 0
-3896 4076 0
-4075 3895 0
-4076 3896 0
-4078 -4079 0
-4078 -4080 0
-4079 -4080 0
-3898 4078 0
-3899 4079 0
-3900 4080 0
-4078 3898 0
-4079 3899 0
-4080 3900 0
-4082 -4083 0
-3902 4082 0
-3903 4083 0
-4082 3902 0
-4083 3903 0
-4085 -4086 0
-4085 -4087 0
-4086 -4087 0
-3905 4085 0
-3906 4086 0
-3907 4087 0
-4085 3905 0
-4086 3906 0
-4087 3907 0
-4089 -4090 0
-3909 4089 0
-3910 4090 0
-4089 3909 0
-4090 3910 0
-4092 -4093 0
-4092 -4094 0
-4093 -4094 0
-3912 4092 0
-3913 4093 0
-3914 4094 0
-4092 3912 0
-4093 3913 0
-4094 3914 0
-4096 -4097 0
-3916 4096 0
-3917 4097 0
-4096 3916 0
-4097 3917 0
-4099 -4100 0
-4099 -4101 0
-4100 -4101 0
-3919 4101 0
-3920 4099 0
-3921 4100 0
-3922 4100 0
-4099 3920 0
-4100 3921 3922 0
-4101 3919 0
-4103 4109 4110 4111 4112 4113 0
-4109 -4110 0
-4109 -4111 0
-4109 -4112 0
-4109 -4113 0
-4110 -4111 0
-4110 -4112 0
-4110 -4113 0
-4111 -4112 0
-4111 -4113 0
-4112 -4113 0
-4103 4114 4115 4116 4117 4118 4119 4120 0
-4114 -4115 0
-4114 -4116 0
-4114 -4117 0
-4114 -4118 0
-4114 -4119 0
-4114 -4120 0
-4115 -4116 0
-4115 -4117 0
-4115 -4118 0
-4115 -4119 0
-4115 -4120 0
-4116 -4117 0
-4116 -4118 0
-4116 -4119 0
-4116 -4120 0
-4117 -4118 0
-4117 -4119 0
-4117 -4120 0
-4118 -4119 0
-4118 -4120 0
-4119 -4120 0
-4103 4121 4122 4123 4124 4125 4126 4127 4128 0
-4121 -4122 0
-4121 -4123 0
-4121 -4124 0
-4121 -4125 0
-4121 -4126 0
-4121 -4127 0
-4121 -4128 0
-4122 -4123 0
-4122 -4124 0
-4122 -4125 0
-4122 -4126 0
-4122 -4127 0
-4122 -4128 0
-4123 -4124 0
-4123 -4125 0
-4123 -4126 0
-4123 -4127 0
-4123 -4128 0
-4124 -4125 0
-4124 -4126 0
-4124 -4127 0
-4124 -4128 0
-4125 -4126 0
-4125 -4127 0
-4125 -4128 0
-4126 -4127 0
-4126 -4128 0
-4127 -4128 0
-4103 4108 0
-4103 4106 0
-4103 4107 0
-4103 -4104 0
-4109 -4106 3782 0
-4112 -4106 3770 0
-4110 -4106 3767 0
-4113 -4106 3789 0
-4111 -4106 3781 0
-4112 -4114 -4107 3967 0
-4112 -4119 -4107 3975 0
-4112 -4115 -4107 3954 0
-4110 -4118 -4107 3955 0
-4112 -4120 -4107 3957 0
-4109 -4115 -4107 3958 0
-4111 -4115 -4107 3970 0
-4113 -4118 -4107 3986 0
-4111 -4120 -4107 3960 0
-4112 -4117 -4107 3961 0
-4111 -4118 -4107 3979 0
-4109 -4118 -4107 3971 0
-4113 -4119 -4107 3963 0
-4113 -4115 -4107 3987 0
-4109 -4119 -4107 3988 0
-4112 -4116 -4107 3981 0
-4110 -4115 -4107 3982 0
-4113 -4114 -4107 3965 0
-4113 -4116 -4107 3983 0
-4110 -4120 -4107 3974 0
-4113 -4120 -4107 3966 0
-4112 -4118 -4107 3985 0
-4109 -4120 -4107 3990 0
-4110 -4116 -4107 3991 0
-4109 -4116 -4107 3992 0
-4125 -4108 3978 0
-4124 -4108 3952 0
-4126 -4108 3953 0
-4122 -4108 3972 0
-4121 -4108 3977 0
-4123 -4108 3969 0
-4127 -4108 3984 0
-4128 -4108 3959 0
-4103 -4109 -4114 0
-4103 -4109 -4117 0
-4103 -4111 -4114 0
-4103 -4111 -4119 0
-4103 -4111 -4117 0
-4103 -4111 -4116 0
-4103 -4110 -4114 0
-4103 -4110 -4119 0
-4103 -4110 -4117 0
-4103 -4113 -4117 0
-4103 -4109 -4121 0
-4103 -4109 -4124 0
-4103 -4109 -4127 0
-4103 -4111 -4121 0
-4103 -4111 -4124 0
-4103 -4111 -4127 0
-4103 -4111 -4126 0
-4103 -4111 -4123 0
-4103 -4110 -4121 0
-4103 -4110 -4124 0
-4103 -4110 -4127 0
-4103 -4110 -4126 0
-4103 -4113 -4124 0
-4103 -4113 -4127 0
-4103 -4112 -4127 0
-3950 4103 0
-3949 4104 0
-4103 3950 0
-4104 3949 0
-4129 4133 0
-4130 4133 0
-4131 -4133 0
-4132 -4133 0
-3952 4134 -4103 4124 0
-3952 4134 4103 0
3952 -4134 -4103 4113 0
3952 -4134 4103 0
-3953 4135 -4103 4126 0
-3953 4135 4103 0
3953 -4135 -4103 4110 0
3953 -4135 4103 0
-3954 4136 -4103 -4112 4115 0
-3954 4136 -4103 4112 0
-3954 4136 4103 0
3954 -4136 -4103 -4112 4122 0
3954 -4136 -4103 4112 0
3954 -4136 4103 0
-3955 4137 -4103 -4110 4118 0
-3955 4137 -4103 4110 0
-3955 4137 4103 0
3955 -4137 -4103 -4110 4125 0
3955 -4137 -4103 4110 0
3955 -4137 4103 0
-3957 4138 -4103 -4112 4120 0
-3957 4138 -4103 4112 0
-3957 4138 4103 0
3957 -4138 -4103 -4112 4128 0
3957 -4138 -4103 4112 0
3957 -4138 4103 0
-3958 4139 -4103 -4109 4115 0
-3958 4139 -4103 4109 0
-3958 4139 4103 0
3958 -4139 -4103 -4109 4122 0
3958 -4139 -4103 4109 0
3958 -4139 4103 0
-3959 4140 -4103 4128 0
-3959 4140 4103 0
3959 -4140 0
-3960 4141 -4103 -4111 4120 0
-3960 4141 -4103 4111 0
-3960 4141 4103 0
3960 -4141 -4103 -4111 4128 0
3960 -4141 -4103 4111 0
3960 -4141 4103 0
-3763 4142 0
3763 -4142 -4103 4120 0
3763 -4142 4103 0
-3961 4143 -4103 -4112 4117 0
-3961 4143 -4103 4112 0
-3961 4143 4103 0
3961 -4143 -4103 -4112 4124 0
3961 -4143 -4103 4112 0
3961 -4143 4103 0
-3963 4144 -4103 -4113 4119 0
-3963 4144 -4103 4113 0
-3963 4144 4103 0
3963 -4144 -4103 -4113 4126 0
3963 -4144 -4103 4113 0
3963 -4144 4103 0
-3767 4145 -4103 4110 0
-3767 4145 4103 0
3767 -4145 -4103 4119 0
3767 -4145 4103 0
-3965 4146 -4103 -4113 4114 0
-3965 4146 -4103 4113 0
-3965 4146 4103 0
3965 -4146 -4103 -4113 4121 0
3965 -4146 -4103 4113 0
3965 -4146 4103 0
-3770 4147 -4103 4112 0
-3770 4147 4103 0
3770 -4147 0
-3966 4148 -4103 -4113 4120 0
-3966 4148 -4103 4113 0
-3966 4148 4103 0
3966 -4148 -4103 -4113 4128 0
3966 -4148 -4103 4113 0
3966 -4148 4103 0
-3967 4149 -4103 -4112 4114 0
-3967 4149 -4103 4112 0
-3967 4149 4103 0
3967 -4149 -4103 -4112 4121 0
3967 -4149 -4103 4112 0
3967 -4149 4103 0
-3969 4150 -4103 4123 0
-3969 4150 4103 0
3969 -4150 -4103 4111 0
3969 -4150 4103 0
-3774 4151 0
3774 -4151 -4103 4118 0
3774 -4151 4103 0
-3970 4152 -4103 -4111 4115 0
-3970 4152 -4103 4111 0
-3970 4152 4103 0
3970 -4152 -4103 -4111 4122 0
3970 -4152 -4103 4111 0
3970 -4152 4103 0
-3971 4153 -4103 -4109 4118 0
-3971 4153 -4103 4109 0
-3971 4153 4103 0
3971 -4153 -4103 -4109 4125 0
3971 -4153 -4103 4109 0
3971 -4153 4103 0
-3972 4154 -4103 4122 0
-3972 4154 4103 0
3972 -4154 0
-3974 4155 -4103 -4110 4120 0
-3974 4155 -4103 4110 0
-3974 4155 4103 0
3974 -4155 -4103 -4110 4128 0
3974 -4155 -4103 4110 0
3974 -4155 4103 0
-3975 4156 -4103 -4112 4119 0
-3975 4156 -4103 4112 0
-3975 4156 4103 0
3975 -4156 -4103 -4112 4126 0
3975 -4156 -4103 4112 0
3975 -4156 4103 0
-3977 4157 -4103 4121 0
-3977 4157 4103 0
3977 -4157 -4103 4109 0
3977 -4157 4103 0
-3781 4158 -4103 4111 0
-3781 4158 4103 0
3781 -4158 -4103 4116 0
3781 -4158 4103 0
-3978 4159 -4103 4125 0
-3978 4159 4103 0
3978 -4159 0
-3782 4160 -4103 4109 0
-3782 4160 4103 0
3782 -4160 -4103 4114 0
3782 -4160 4103 0
-3979 4161 -4103 -4111 4118 0
-3979 4161 -4103 4111 0
-3979 4161 4103 0
3979 -4161 -4103 -4111 4125 0
3979 -4161 -4103 4111 0
3979 -4161 4103 0
-3981 4162 -4103 -4112 4116 0
-3981 4162 -4103 4112 0
-3981 4162 4103 0
3981 -4162 -4103 -4112 4123 0
3981 -4162 -4103 4112 0
3981 -4162 4103 0
-3982 4163 -4103 -4110 4115 0
-3982 4163 -4103 4110 0
-3982 4163 4103 0
3982 -4163 -4103 -4110 4122 0
3982 -4163 -4103 4110 0
3982 -4163 4103 0
-3983 4164 -4103 -4113 4116 0
-3983 4164 -4103 4113 0
-3983 4164 4103 0
3983 -4164 -4103 -4113 4123 0
3983 -4164 -4103 4113 0
3983 -4164 4103 0
-3984 4165 -4103 4127 0
-3984 4165 4103 0
3984 -4165 -4103 4112 0
3984 -4165 4103 0
-3985 4166 -4103 -4112 4118 0
-3985 4166 -4103 4112 0
-3985 4166 4103 0
3985 -4166 -4103 -4112 4125 0
3985 -4166 -4103 4112 0
3985 -4166 4103 0
-3789 4167 -4103 4113 0
-3789 4167 4103 0
3789 -4167 -4103 4117 0
3789 -4167 4103 0
-3986 4168 -4103 -4113 4118 0
-3986 4168 -4103 4113 0
-3986 4168 4103 0
3986 -4168 -4103 -4113 4125 0
3986 -4168 -4103 4113 0
3986 -4168 4103 0
-3987 4169 -4103 -4113 4115 0
-3987 4169 -4103 4113 0
-3987 4169 4103 0
3987 -4169 -4103 -4113 4122 0
3987 -4169 -4103 4113 0
3987 -4169 4103 0
-3988 4170 -4103 -4109 4119 0
-3988 4170 -4103 4109 0
-3988 4170 4103 0
3988 -4170 -4103 -4109 4126 0
3988 -4170 -4103 4109 0
3988 -4170 4103 0
-3793 4171 0
3793 -4171 -4103 4115 0
3793 -4171 4103 0
-3990 4172 -4103 -4109 4120 0
-3990 4172 -4103 4109 0
-3990 4172 4103 0
3990 -4172 -4103 -4109 4128 0
3990 -4172 -4103 4109 0
3990 -4172 4103 0
-3991 4173 -4103 -4110 4116 0
-3991 4173 -4103 4110 0
-3991 4173 4103 0
3991 -4173 -4103 -4110 4123 0
3991 -4173 -4103 4110 0
3991 -4173 4103 0
-3992 4174 -4103 -4109 4116 0
-3992 4174 -4103 4109 0
-3992 4174 4103 0
3992 -4174 -4103 -4109 4123 0
3992 -4174 -4103 4109 0
3992 -4174 4103 0
-4130 3968 0
-4130 4151 0
-4131 4185 4186 4187 4188 4189 0
-4185 -4186 0
-4185 -4187 0
-4185 -4188 0
-4185 -4189 0
-4186 -4187 0
-4186 -4188 0
-4186 -4189 0
-4187 -4188 0
-4187 -4189 0
-4188 -4189 0
-4131 4190 4191 4192 4193 4194 4195 4196 4197 0
-4190 -4191 0
-4190 -4192 0
-4190 -4193 0
-4190 -4194 0
-4190 -4195 0
-4190 -4196 0
-4190 -4197 0
-4191 -4192 0
-4191 -4193 0
-4191 -4194 0
-4191 -4195 0
-4191 -4196 0
-4191 -4197 0
-4192 -4193 0
-4192 -4194 0
-4192 -4195 0
-4192 -4196 0
-4192 -4197 0
-4193 -4194 0
-4193 -4195 0
-4193 -4196 0
-4193 -4197 0
-4194 -4195 0
-4194 -4196 0
-4194 -4197 0
-4195 -4196 0
-4195 -4197 0
-4196 -4197 0
-4131 4179 0
-4131 4184 0
-4132 4190 4191 4192 4193 4194 4195 4196 4197 0
-4190 -4191 0
-4190 -4192 0
-4190 -4193 0
-4190 -4194 0
-4190 -4195 0
-4190 -4196 0
-4190 -4197 0
-4191 -4192 0
-4191 -4193 0
-4191 -4194 0
-4191 -4195 0
-4191 -4196 0
-4191 -4197 0
-4192 -4193 0
-4192 -4194 0
-4192 -4195 0
-4192 -4196 0
-4192 -4197 0
-4193 -4194 0
-4193 -4195 0
-4193 -4196 0
-4193 -4197 0
-4194 -4195 0
-4194 -4196 0
-4194 -4197 0
-4195 -4196 0
-4195 -4197 0
-4196 -4197 0
-4132 4185 4186 4187 4188 4189 0
-4185 -4186 0
-4185 -4187 0
-4185 -4188 0
-4185 -4189 0
-4186 -4187 0
-4186 -4188 0
-4186 -4189 0
-4187 -4188 0
-4187 -4189 0
-4188 -4189 0
-4132 4180 0
-4132 4175 0
-4129 -4130 0
-4129 -4131 0
-4129 -4132 0
-4130 -4131 0
-4130 -4132 0
-4131 -4132 0
-4185 -4175 3989 0
-4188 -4175 3962 0
-4187 -4175 3956 0
-4186 -4175 3980 0
-4189 -4175 3964 0
-4109 4176 -4160 0
-4112 4176 -4147 0
-4110 4176 -4145 0
-4113 4176 -4167 0
-4111 4176 -4158 0
-4112 -4114 4177 -4149 0
-4112 -4119 4177 -4156 0
-4112 -4115 4177 -4136 0
-4110 -4118 4177 -4137 0
-4112 -4120 4177 -4138 0
-4109 -4115 4177 -4139 0
-4111 -4115 4177 -4152 0
-4113 -4118 4177 -4168 0
-4111 -4120 4177 -4141 0
-4112 -4117 4177 -4143 0
-4111 -4118 4177 -4161 0
-4109 -4118 4177 -4153 0
-4113 -4119 4177 -4144 0
-4113 -4115 4177 -4169 0
-4109 -4119 4177 -4170 0
-4112 -4116 4177 -4162 0
-4110 -4115 4177 -4163 0
-4113 -4114 4177 -4146 0
-4113 -4116 4177 -4164 0
-4110 -4120 4177 -4155 0
-4113 -4120 4177 -4148 0
-4112 -4118 4177 -4166 0
-4109 -4120 4177 -4172 0
-4110 -4116 4177 -4173 0
-4109 -4116 4177 -4174 0
-4125 4178 -4159 0
-4124 4178 -4134 0
-4126 4178 -4135 0
-4122 4178 -4154 0
-4121 4178 -4157 0
-4123 4178 -4150 0
-4127 4178 -4165 0
-4128 4178 -4140 0
-4185 -4179 4160 0
-4188 -4179 4147 0
-4186 -4179 4145 0
-4189 -4179 4167 0
-4187 -4179 4158 0
-4190 -4180 4160 0
-4195 -4180 4145 0
-4191 -4180 4171 0
-4196 -4180 4147 0
-4194 -4180 4151 0
-4193 -4180 4167 0
-4192 -4180 4158 0
-4197 -4180 4142 0
-4109 -4181 4157 0
-4113 -4181 4134 0
-4110 -4181 4135 0
-4111 -4181 4150 0
-4112 -4181 4165 0
-4112 -4121 -4182 4149 0
-4112 -4126 -4182 4156 0
-4112 -4122 -4182 4136 0
-4110 -4125 -4182 4137 0
-4112 -4128 -4182 4138 0
-4109 -4122 -4182 4139 0
-4111 -4122 -4182 4152 0
-4113 -4125 -4182 4168 0
-4111 -4128 -4182 4141 0
-4112 -4124 -4182 4143 0
-4111 -4125 -4182 4161 0
-4109 -4125 -4182 4153 0
-4113 -4126 -4182 4144 0
-4113 -4122 -4182 4169 0
-4109 -4126 -4182 4170 0
-4112 -4123 -4182 4162 0
-4110 -4122 -4182 4163 0
-4113 -4121 -4182 4146 0
-4113 -4123 -4182 4164 0
-4110 -4128 -4182 4155 0
-4113 -4128 -4182 4148 0
-4112 -4125 -4182 4166 0
-4109 -4128 -4182 4172 0
-4110 -4123 -4182 4173 0
-4109 -4123 -4182 4174 0
-4114 -4183 4160 0
-4119 -4183 4145 0
-4115 -4183 4171 0
-4118 -4183 4151 0
-4117 -4183 4167 0
-4116 -4183 4158 0
-4120 -4183 4142 0
-4191 -4184 3968 0
-4196 -4184 3962 0
-4197 -4184 3976 0
-4192 -4184 3956 0
-4195 -4184 3980 0
-4193 -4184 3964 0
-4194 -4184 3973 0
-4190 -4184 3989 0
-4103 4182 0
-4198 4114 -4121 0
-4198 -4114 4121 0
-4198 4115 -4122 0
-4198 -4115 4122 0
-4198 4116 -4123 0
-4198 -4116 4123 0
-4198 4117 -4124 0
-4198 -4117 4124 0
-4198 4118 -4125 0
-4198 -4118 4125 0
-4198 4119 -4126 0
-4198 -4119 4126 0
-4198 4120 -4128 0
-4198 -4120 4128 0
-4114 -4121 4198 0
-4115 -4122 4198 0
-4116 -4123 4198 0
-4117 -4124 4198 0
-4118 -4125 4198 0
-4119 -4126 4198 0
-4120 -4128 4198 0
-4127 -4198 0
-4103 -4177 4198 0
-4199 4109 -4114 0
-4199 -4109 4114 0
-4199 4110 -4119 0
-4199 -4110 4119 0
-4199 4111 -4116 0
-4199 -4111 4116 0
-4199 4113 -4117 0
-4199 -4113 4117 0
-4109 -4114 4199 0
-4110 -4119 4199 0
-4111 -4116 4199 0
-4113 -4117 4199 0
-4112 -4199 0
-4118 -4199 0
-4115 -4199 0
-4120 -4199 0
-4103 -4176 4199 0
-4103 4183 0
-4200 4121 -4114 0
-4200 -4121 4114 0
-4200 4122 -4115 0
-4200 -4122 4115 0
-4200 4123 -4116 0
-4200 -4123 4116 0
-4200 4124 -4117 0
-4200 -4124 4117 0
-4200 4125 -4118 0
-4200 -4125 4118 0
-4200 4126 -4119 0
-4200 -4126 4119 0
-4200 4128 -4120 0
-4200 -4128 4120 0
-4121 -4114 4200 0
-4122 -4115 4200 0
-4123 -4116 4200 0
-4124 -4117 4200 0
-4125 -4118 4200 0
-4126 -4119 4200 0
-4128 -4120 4200 0
-4127 -4200 0
-4201 4121 -4109 0
-4201 -4121 4109 0
-4201 4126 -4110 0
-4201 -4126 4110 0
-4201 4123 -4111 0
-4201 -4123 4111 0
-4201 4127 -4112 0
-4201 -4127 4112 0
-4201 4124 -4113 0
-4201 -4124 4113 0
-4121 -4109 4201 0
-4126 -4110 4201 0
-4123 -4111 4201 0
-4127 -4112 4201 0
-4124 -4113 4201 0
-4125 -4201 0
-4122 -4201 0
-4128 -4201 0
-4103 -4178 4201 0
-4103 4181 0
-4131 -4185 -4190 0
-4131 -4185 -4196 0
-4131 -4185 -4193 0
-4131 -4187 -4190 0
-4131 -4187 -4196 0
-4131 -4187 -4195 0
-4131 -4187 -4192 0
-4131 -4187 -4193 0
-4131 -4189 -4196 0
-4131 -4189 -4193 0
-4131 -4186 -4190 0
-4131 -4186 -4196 0
-4131 -4186 -4195 0
-4131 -4186 -4193 0
-4131 -4188 -4196 0
-4132 -4185 -4190 0
-4132 -4185 -4196 0
-4132 -4185 -4193 0
-4132 -4187 -4190 0
-4132 -4187 -4196 0
-4132 -4187 -4195 0
-4132 -4187 -4192 0
-4132 -4187 -4193 0
-4132 -4189 -4196 0
-4132 -4189 -4193 0
-4132 -4186 -4190 0
-4132 -4186 -4196 0
-4132 -4186 -4195 0
-4132 -4186 -4193 0
-4132 -4188 -4196 0
-3950 4130 4131 4132 0
-3949 4129 0
-4130 3950 0
-4131 3950 0
-4132 3950 0
-4129 3949 0
-4134 151 -4133 0
4134 -151 -4133 0
-4135 152 -4133 0
4135 -152 -4133 0
-4136 154 -4133 0
4136 -154 -4133 0
-4137 155 -4133 0
4137 -155 -4133 0
-3956 385 -4133 0
3956 -385 -4133 0
-4138 156 -4133 0
4138 -156 -4133 0
-4139 158 -4133 0
4139 -158 -4133 0
-4140 159 -4133 0
4140 -159 -4133 0
-4141 160 -4133 0
4141 -160 -4133 0
-4142 602 -4133 0
4142 -602 -4133 0
-4143 10 -4133 0
4143 -10 -4133 0
-3962 162 -4133 0
3962 -162 -4133 0
-4144 163 -4133 0
4144 -163 -4133 0
-4145 270 -4133 0
4145 -270 -4133 0
-3964 386 -4133 0
3964 -386 -4133 0
-4146 11 -4133 0
4146 -11 -4133 0
-4147 271 -4133 0
4147 -271 -4133 0
-4148 167 -4133 0
4148 -167 -4133 0
-4149 170 -4133 0
4149 -170 -4133 0
-3968 171 -4133 0
3968 -171 -4133 0
-4150 172 -4133 0
4150 -172 -4133 0
-4151 273 -4133 0
4151 -273 -4133 0
-4152 12 -4133 0
4152 -12 -4133 0
-4153 174 -4133 0
4153 -174 -4133 0
-4154 274 -4133 0
4154 -274 -4133 0
-3973 387 -4133 0
3973 -387 -4133 0
-4155 176 -4133 0
4155 -176 -4133 0
-4156 153 -4133 0
4156 -153 -4133 0
-3976 388 -4133 0
3976 -388 -4133 0
-4157 157 -4133 0
4157 -157 -4133 0
-4158 267 -4133 0
4158 -267 -4133 0
-4159 268 -4133 0
4159 -268 -4133 0
-4160 269 -4133 0
4160 -269 -4133 0
-4161 161 -4133 0
4161 -161 -4133 0
-3980 389 -4133 0
3980 -389 -4133 0
-4162 164 -4133 0
4162 -164 -4133 0
-4163 165 -4133 0
4163 -165 -4133 0
-4164 166 -4133 0
4164 -166 -4133 0
-4165 168 -4133 0
4165 -168 -4133 0
-4166 169 -4133 0
4166 -169 -4133 0
-4167 272 -4133 0
4167 -272 -4133 0
-4168 173 -4133 0
4168 -173 -4133 0
-4169 175 -4133 0
4169 -175 -4133 0
-4170 13 -4133 0
4170 -13 -4133 0
-4171 603 -4133 0
4171 -603 -4133 0
-3989 390 -4133 0
3989 -390 -4133 0
-4172 177 -4133 0
4172 -177 -4133 0
-4173 14 -4133 0
4173 -14 -4133 0
-4174 178 -4133 0
4174 -178 -4133 0
-4005 4202 0
-4202 4005 0
a 4133 0
